n_res = 4;
rc = [ 30, 30, 25, 31 ];
n_tasks = 30;
d = [ 2, 8, 6, 4, 2, 5, 7, 4, 10, 5, 1, 6, 5, 3, 10, 9, 5, 9, 5, 7, 1, 5, 5, 3, 8, 3, 1, 1, 4, 4 ];
rr = [| 5, 8, 7, 4, 1, 10, 4, 4, 3, 3, 7, 4, 8, 10, 1, 1, 9, 7, 7, 5, 1, 5, 7, 5, 5, 2, 6, 7, 4, 10
      | 7, 6, 4, 3, 8, 7, 9, 3, 8, 6, 1, 10, 5, 2, 4, 1, 2, 1, 7, 2, 8, 6, 1, 1, 8, 8, 6, 2, 4, 2
      | 6, 1, 9, 9, 8, 1, 10, 1, 10, 5, 8, 9, 2, 6, 1, 1, 3, 2, 5, 9, 9, 1, 7, 8, 9, 10, 3, 9, 2, 8
      | 5, 4, 4, 5, 1, 5, 6, 6, 4, 4, 4, 4, 10, 8, 9, 5, 3, 10, 2, 7, 3, 8, 5, 3, 9, 8, 8, 1, 7, 10 |];
suc = [ { 2 }, 
        { 1 }, 
        { 4 }, 
        { 3 }, 
        { 6 }, 
        { 5 }, 
        { 8 }, 
        { 7 }, 
        { 10 }, 
        { 9 }, 
        { 12 }, 
        { 11 }, 
        { 14 }, 
        { 13 }, 
        { 16 }, 
        { 15 }, 
        { 18 }, 
        { 17 }, 
        { 20 }, 
        { 19 }, 
        { 22 }, 
        { 21 }, 
        { 24 }, 
        { 23 }, 
        { 26 }, 
        { 25 }, 
        { 28 }, 
        { 27 }, 
        { 30 }, 
        { 29 }]; 
